Maximize
  0.000299675 Z_749_0_0 + 0.00250852689074861 Z_749_0_1
   + 0.7491266538177518 Z_749_0_2 + 9.572331721332658e-04 Z_749_0_3
   + 0.1471079111899021 Z_749_0_4 + 3.1725140966949267e-04 Z_41_1_0
   + 0.0011404165970533 Z_41_1_1 + 0.5573347318195272 Z_41_1_2
   + 3.5451734398970759e-04 Z_41_1_3 + 0.3408530828297603 Z_41_1_4
   + 0.0293989487254344 Z_41_2_0 + 0.0234983949846877 Z_41_2_1
   + 0.0719047591018491 Z_41_2_2 + 0.0112391966427712 Z_41_2_3
   + 0.7639587005452577 Z_41_2_4 + 3.1725140966949267e-04 Z_41_0_0
   + 0.0011404165970533 Z_41_0_1 + 0.5573347318195272 Z_41_0_2
   + 3.5451734398970759e-04 Z_41_0_3 + 0.3408530828297603 Z_41_0_4
   + 0.0304857018726105 Z_41_4_0 + 0.0133839270817039 Z_41_4_1
   + 0.0302203129849785 Z_41_4_2 + 0.0023889614010781 Z_41_4_3
   + 0.8235210966596291 Z_41_4_4 + 0.00185131456170932 Z_373_0_0
   + 9.7082185409152891e-04 Z_373_0_1 + 0.7304309183151246 Z_373_0_2
   + 0.0100592672101743 Z_373_0_3 + 0.1566876780589003 Z_373_0_4
   + 0.00154736083766023 Z_540_0_0 + 6.454363027153376e-04 Z_540_0_1
   + 0.7305877159054267 Z_540_0_2 + 0.00487848927226568 Z_540_0_3
   + 0.1623409976819321 Z_540_0_4 + [ 0.4 Z_373_0_0 * Z_540_0_0
   + 0.4 Z_373_0_1 * Z_540_0_1 + 0.4 Z_373_0_2 * Z_540_0_2
   + 0.4 Z_373_0_3 * Z_540_0_3 ] / 2 
Subject To
 constraint1_7490: Z_749_0_0 + Z_749_0_1 + Z_749_0_2 + Z_749_0_3
   + Z_749_0_4 <= 1
 constraint1_411: Z_41_1_0 + Z_41_1_1 + Z_41_1_2 + Z_41_1_3 + Z_41_1_4
   <= 1
 constraint1_412: Z_41_2_0 + Z_41_2_1 + Z_41_2_2 + Z_41_2_3 + Z_41_2_4
   <= 1
 constraint1_410: Z_41_0_0 + Z_41_0_1 + Z_41_0_2 + Z_41_0_3 + Z_41_0_4
   <= 1
 constraint1_414: Z_41_4_0 + Z_41_4_1 + Z_41_4_2 + Z_41_4_3 + Z_41_4_4
   <= 1
 constraint1_3730: Z_373_0_0 + Z_373_0_1 + Z_373_0_2 + Z_373_0_3
   + Z_373_0_4 <= 1
 constraint1_5400: Z_540_0_0 + Z_540_0_1 + Z_540_0_2 + Z_540_0_3
   + Z_540_0_4 <= 1
 constraint2_7490: Z_749_0_0 <= 1
 constraint2_7491: Z_749_0_1 <= 1
 constraint2_7492: Z_749_0_2 <= 1
 constraint2_7493: Z_749_0_3 <= 1
 constraint2_410: Z_41_1_0 + Z_41_2_0 + Z_41_0_0 + Z_41_4_0 <= 1
 constraint2_411: Z_41_1_1 + Z_41_2_1 + Z_41_0_1 + Z_41_4_1 <= 1
 constraint2_412: Z_41_1_2 + Z_41_2_2 + Z_41_0_2 + Z_41_4_2 <= 1
 constraint2_413: Z_41_1_3 + Z_41_2_3 + Z_41_0_3 + Z_41_4_3 <= 1
 constraint2_3730: Z_373_0_0 <= 1
 constraint2_3731: Z_373_0_1 <= 1
 constraint2_3732: Z_373_0_2 <= 1
 constraint2_3733: Z_373_0_3 <= 1
 constraint2_5400: Z_540_0_0 <= 1
 constraint2_5401: Z_540_0_1 <= 1
 constraint2_5402: Z_540_0_2 <= 1
 constraint2_5403: Z_540_0_3 <= 1
Bounds
Binaries
 Z_749_0_0 Z_749_0_1 Z_749_0_2 Z_749_0_3 Z_749_0_4 Z_41_1_0 Z_41_1_1
 Z_41_1_2 Z_41_1_3 Z_41_1_4 Z_41_2_0 Z_41_2_1 Z_41_2_2 Z_41_2_3 Z_41_2_4
 Z_41_0_0 Z_41_0_1 Z_41_0_2 Z_41_0_3 Z_41_0_4 Z_41_4_0 Z_41_4_1 Z_41_4_2
 Z_41_4_3 Z_41_4_4 Z_373_0_0 Z_373_0_1 Z_373_0_2 Z_373_0_3 Z_373_0_4
 Z_540_0_0 Z_540_0_1 Z_540_0_2 Z_540_0_3 Z_540_0_4
End
